NAME: GRASP_11_2
TYPE: TSP
COMMENT: line_11_2
DIMENSION: 11
EDGE_WEIGHT_TYPE: EUC_2D
NODE_COORD_SECTION
1 0.0 46.0
2 0.0 72.0
3 0.0 76.0
4 0.0 18.0
5 0.0 100.0
6 0.0 40.0
7 0.0 7.0
8 0.0 56.0
9 0.0 104.0
10 0.0 52.0
11 0.0 41.0
